40
    22    83    90     4    33    16    21    17    34    54    51    33    88    93    94    13    85    84    41    21    43    30    64    25    10    89    10    96    59    70     5     8    93    37    54    37    44     4    39    65
     7     7    10     1     5     7     1     8    10     1     6     7     6     1     6     8     6     2     4     1     1     6     6     6    10    10     2     6     2     7     6     3     3     9     5     1     8     9     9     5
  1192  1284  1086  1269  1008  1002  1202   943  1153   960  1201  1204  1074   983  1115  1066  1034   981  1199  1174   965  1222  1242  1020   993  1298  1186  1148  1032  1132  1182  1115  1299  1062  1094   949  1175   993  1293   959
